job_count = 26 ;
duration = [|7, 3|19, 4|14, 3|8, 8|3, 4|16, 5|10, 9|18, 8|10, 7|11, 6|11, 4|18, 1|14, 9|17, 4|3, 6|17, 9|12, 3|4, 9|10, 9|7, 2|6, 8|8, 6|16, 2|9, 4|7, 4|17, 7|] ;
machine_count = 2 ;
cost = [|14, 29|16, 30|11, 31|14, 36|19, 32|11, 33|17, 27|11, 21|12, 34|12, 38|17, 23|15, 22|14, 23|17, 33|14, 34|16, 29|17, 27|17, 38|14, 38|13, 23|19, 21|12, 34|13, 31|17, 33|18, 34|16, 29|] ;
deadline = [65, 65, 65, 65, 65, 65, 65, 65, 65, 65, 65, 65, 65, 65, 65, 65, 65, 65, 65, 65, 65, 65, 65, 65, 65, 65] ;
release = [0, 0, 0, 0, 0, 0, 0, 0, 0, 0, 0, 0, 0, 0, 0, 0, 0, 0, 0, 0, 0, 0, 0, 0, 0, 0] ;
resource = [|7, 7|2, 2|2, 2|9, 9|8, 8|3, 3|8, 8|4, 4|2, 2|2, 2|1, 1|3, 3|5, 5|4, 4|6, 6|7, 7|6, 6|5, 5|3, 3|9, 9|3, 3|9, 9|2, 2|4, 4|9, 9|5, 5|] ;
capacities = [10, 10] ;
